
Gurobi 10.0.3 (linux64, gurobi_cl) logging started Thu Nov  2 11:34:15 2023

Set parameter Username
Set parameter TimeLimit to value 3600
Set parameter LogFile to value "RCPSP_487.log"
Set parameter Threads to value 32
Academic license - for non-commercial use only - expires 2024-10-30
Using license file /home/jrivera6/gurobi-licenses/v1003/compute-0-35/gurobi.lic

Gurobi Optimizer version 10.0.3 build v10.0.3rc0 (linux64)
Copyright (c) 2023, Gurobi Optimization, LLC

Read MPS format model from file RCPSP_487.mps
Reading time = 0.02 seconds
RCPSP_487: 19624 rows, 7750 columns, 60918 nonzeros

CPU model: Intel(R) Xeon(R) Gold 6130 CPU @ 2.10GHz, instruction set [SSE2|AVX|AVX2|AVX512]
Thread count: 32 physical cores, 32 logical processors, using up to 32 threads

Optimize a model with 19624 rows, 7750 columns and 60918 nonzeros
Model fingerprint: 0xae99e89d
Variable types: 62 continuous, 7688 integer (7688 binary)
Coefficient statistics:
  Matrix range     [1e+00, 3e+02]
  Objective range  [1e+00, 1e+00]
  Bounds range     [1e+00, 1e+00]
  RHS range        [1e+00, 4e+02]
Presolve removed 7247 rows and 2480 columns
Presolve time: 2.14s
Presolved: 12377 rows, 5270 columns, 39808 nonzeros
Variable types: 61 continuous, 5209 integer (5209 binary)

Root relaxation: objective 6.000000e+01, 1752 iterations, 0.04 seconds (0.02 work units)

    Nodes    |    Current Node    |     Objective Bounds      |     Work
 Expl Unexpl |  Obj  Depth IntInf | Incumbent    BestBd   Gap | It/Node Time

     0     0   60.00000    0  151          -   60.00000      -     -    2s
     0     0   60.00000    0  434          -   60.00000      -     -    5s
     0     0   60.00000    0  347          -   60.00000      -     -    6s
     0     0   62.00000    0  177          -   62.00000      -     -    9s
     0     0   62.00000    0  257          -   62.00000      -     -   10s
     0     0   62.00000    0  358          -   62.00000      -     -   12s
     0     0   62.00000    0  370          -   62.00000      -     -   12s
     0     0   62.00000    0  451          -   62.00000      -     -   13s
     0     0   62.00000    0  505          -   62.00000      -     -   13s
     0     0   62.00000    0  311          -   62.00000      -     -   15s
     0     0   62.00000    0  411          -   62.00000      -     -   21s
     0     0   62.00000    0  381          -   62.00000      -     -   23s
     0     0   62.00000    0  471          -   62.00000      -     -   23s
     0     0   62.00000    0  503          -   62.00000      -     -   25s
     0     0   62.00000    0  606          -   62.00000      -     -   25s
     0     0   62.00000    0  668          -   62.00000      -     -   26s
     0     0   62.00000    0  701          -   62.00000      -     -   26s
     0     0   62.00000    0  290          -   62.00000      -     -   30s
     0     0   62.00000    0  364          -   62.00000      -     -   30s
     0     0   62.00000    0  530          -   62.00000      -     -   31s
     0     0   62.00000    0  472          -   62.00000      -     -   31s
     0     0   62.00000    0  511          -   62.00000      -     -   32s
     0     0   62.00000    0  509          -   62.00000      -     -   33s
     0     0   62.00000    0  540          -   62.00000      -     -   33s
     0     0   62.00000    0  555          -   62.00000      -     -   34s
     0     0   62.00000    0  488          -   62.00000      -     -   35s
     0     0   62.00000    0  339          -   62.00000      -     -   38s
     0     0   62.00000    0  480          -   62.00000      -     -   38s
     0     0   62.00000    0  583          -   62.00000      -     -   39s
     0     0   62.00000    0  596          -   62.00000      -     -   40s
     0     0   62.00000    0  273          -   62.00000      -     -   42s
     0     0   62.00000    0  443          -   62.00000      -     -   43s
     0     0   62.00000    0  238          -   62.00000      -     -   46s
     0     0   62.00000    0  362          -   62.00000      -     -   46s
     0     0   62.00000    0  278          -   62.00000      -     -   49s
     0     0   62.00000    0  330          -   62.00000      -     -   49s
     0     0   62.00000    0  280          -   62.00000      -     -   52s
H    0     0                     341.0000000   62.00000  81.8%     -   52s
     0     0   62.00000    0  276  341.00000   62.00000  81.8%     -   52s
H    0     0                      84.0000000   62.00000  26.2%     -   56s
     0     2   62.00000    0  161   84.00000   62.00000  26.2%     -   64s
     1     4   62.00000    1  136   84.00000   62.00000  26.2%  3271   65s
     7    14   62.00000    3  317   84.00000   62.00000  26.2%   963   72s
    14    25   62.00000    4  348   84.00000   62.00000  26.2%   950   76s
    28    48   63.00000    5  293   84.00000   62.00000  26.2%   766   82s
H   29    48                      83.0000000   62.00000  25.3%   739   82s
    53    78   63.00000    6  295   83.00000   62.00000  25.3%   617   86s
    85   110   63.00000    7  290   83.00000   62.00000  25.3%   561  105s
H   96   110                      82.0000000   62.00000  24.4%   529  105s
H  107   110                      78.0000000   62.00000  20.5%   502  105s
   149   163   63.00000    9  277   78.00000   62.00000  20.5%   397  110s
   292   307   63.00000   12  284   78.00000   62.00000  20.5%   220  116s
   400   375   63.00000   14  275   78.00000   62.00000  20.5%   180  124s
   436   422   63.00000   15  274   78.00000   62.00000  20.5%   183  127s
   497   462   63.00000   16  274   78.00000   62.00000  20.5%   171  130s
   612   569   63.00000   19  277   78.00000   62.00000  20.5%   158  136s
   879   759   63.00000   23  382   78.00000   62.00000  20.5%   123  216s
H  880   759                      76.0000000   62.00000  18.4%   123  216s
H  884   759                      75.0000000   62.00000  17.3%   122  216s
   912   782   63.00000   24  353   75.00000   62.00000  17.3%   123  220s
  1127   942 infeasible   26        75.00000   62.00000  17.3%   122  226s
  1375  1183 infeasible   29        75.00000   62.00000  17.3%   111  232s
  1586  1355   68.00000   36  293   75.00000   62.00000  17.3%   101  235s
  1804  1492   68.00000   44  287   75.00000   62.00000  17.3%  94.8  240s
  2031  1517     cutoff   48        75.00000   62.00000  17.3%  90.2  274s
H 2054  1517                      75.0000000   62.00000  17.3%  90.4  274s
  2080  1585   70.00000   49  353   75.00000   62.00000  17.3%  92.4  277s
  2237  1702 infeasible   53        75.00000   62.00000  17.3%  92.8  281s
  2722  1932   70.00000   66  412   75.00000   62.00000  17.3%  88.1  288s
  2992  1933   68.00000   14  276   75.00000   62.00000  17.3%  85.3  331s
  2995  1935   72.00000    8  242   75.00000   62.00000  17.3%  85.3  336s
  2997  1936   72.00000   48  154   75.00000   62.00000  17.3%  85.2  341s
  3001  1939   72.00000   11  216   75.00000   63.01777  16.0%  85.1  345s
  3005  1942   70.00000   26  242   75.00000   70.00000  6.67%  85.0  350s
  3007  1943   72.00000   50  264   75.00000   70.00000  6.67%  84.9  355s
  3010  1945   70.00000   30  251   75.00000   70.00000  6.67%  84.8  360s
  3011  1946   73.00000   36  186   75.00000   70.00000  6.67%  84.8  365s
  3014  1948   70.00000   44  201   75.00000   70.00000  6.67%  84.7  372s
  3016  1949   72.00000   64  375   75.00000   70.00000  6.67%  84.7  378s
  3018  1950   70.00000   18  441   75.00000   70.00000  6.67%  84.6  380s
  3019  1951   70.00000   21  253   75.00000   70.00000  6.67%  84.6  385s
  3022  1953   71.00000   38  233   75.00000   70.00000  6.67%  84.5  391s
  3025  1955   70.00000   21   87   75.00000   70.00000  6.67%  84.4  397s
  3028  1957   70.00000   62  187   75.00000   70.00000  6.67%  84.3  402s
  3031  1959   70.00000    8  216   75.00000   70.00000  6.67%  84.2  408s
  3033  1960   72.00000   50  419   75.00000   70.00000  6.67%  84.2  410s
  3035  1962   71.00000   74  339   75.00000   70.00000  6.67%  84.1  415s
  3036  1962   71.00000   72   82   75.00000   70.25000  6.33%  84.1  420s
  3041  1966   71.00000   36  236   75.00000   71.00000  5.33%  84.0  426s
  3042  1966   71.00000   84  214   75.00000   71.00000  5.33%  83.9  430s
  3044  1968   71.00000   25  147   75.00000   71.00000  5.33%  83.9  436s
  3047  1970   71.00000   31  179   75.00000   71.00000  5.33%  83.8  442s
  3049  1971   71.00000   38  366   75.00000   71.00000  5.33%  83.8  445s
  3052  1973   74.00000   45  311   75.00000   71.00000  5.33%  83.7  450s
  3054  1974   71.00000   29  441   75.00000   71.00000  5.33%  83.6  456s
  3055  1975   71.00000   29  451   75.00000   71.00000  5.33%  83.6  465s
H 3056  1876                      74.0000000   71.00000  4.05%  83.6  473s
  3057  1876   71.00000   63  121   74.00000   71.00000  4.05%  83.5  475s
  3059  1878   71.00000   28  194   74.00000   71.00000  4.05%  83.5  485s
  3060  1878   71.00000   27  493   74.00000   71.00000  4.05%  83.5  490s
  3061  1879   71.00000   41   94   74.00000   71.00000  4.05%  83.4  499s
  3062  1880   72.00000   31  316   74.00000   71.00000  4.05%  83.4  501s
  3063  1880   73.00000   18  221   74.00000   71.00000  4.05%  83.4  508s
  3066  1884   71.00000   58  276   74.00000   71.00000  4.05%   137  518s
  3068  1885   74.00000   43   49   74.00000   71.00000  4.05%   137  543s
  3069  1886   71.00000   25   41   74.00000   71.00000  4.05%   137  551s
  3072  1888   72.00000   33  167   74.00000   71.00000  4.05%   137  555s
  3076  1894   71.00000   24  305   74.00000   71.00000  4.05%   143  574s
  3078  1897   71.00000   25  393   74.00000   71.00000  4.05%   143  586s
  3082  1900   71.00000   26  351   74.00000   71.00000  4.05%   143  593s
  3090  1903   71.00000   27  346   74.00000   71.00000  4.05%   143  599s
  3102  1912   71.00000   28  347   74.00000   71.00000  4.05%   143  606s
  3120  1929   71.00000   29  385   74.00000   71.00000  4.05%   144  612s
  3151  1947   71.00000   30  401   74.00000   71.00000  4.05%   144  618s
H 3153  1851                      74.0000000   71.00000  4.05%   144  618s
  3183  1865   71.00000   31  407   74.00000   71.00000  4.05%   143  632s
  3247  1911   71.00000   32  425   74.00000   71.00000  4.05%   142  648s
H 3269  1813                      73.0000000   71.00000  2.74%   142  648s
  3298  1764   72.00000   32  264   73.00000   71.00000  2.74%   141  661s
  3488  1683     cutoff   32        73.00000   71.00000  2.74%   135  674s
  3526  1706   71.02754   33  383   73.00000   71.00000  2.74%   135  676s
  3912  1751   71.02754   40  390   73.00000   71.00000  2.74%   124  680s
  4106  1695 infeasible   40        73.00000   71.00000  2.74%   120  690s
  4387  1724   71.00000   35  380   73.00000   71.00000  2.74%   115  733s
H 4394  1636                      73.0000000   71.00000  2.74%   114  733s
  4432  1622   71.00000   36  371   73.00000   71.00000  2.74%   114  743s
  4486  1616   72.00000   37  360   73.00000   71.00000  2.74%   113  757s
  4533  1606   72.00000   38  370   73.00000   71.00000  2.74%   112  768s
  4587  1688     cutoff   39        73.00000   71.00000  2.74%   112  770s
  4755  1623   72.00000   41  360   73.00000   71.00000  2.74%   108  781s
  5019  1666   72.00000   46  338   73.00000   71.00000  2.74%   104  847s
H 5038  1578                      72.0000000   71.00000  1.39%   103  847s
  5056  1223     cutoff   47        72.00000   71.00000  1.39%   103  852s

Cutting planes:
  Gomory: 2
  Cover: 27
  Implied bound: 8
  Projected implied bound: 1
  Clique: 153
  MIR: 11
  StrongCG: 8
  Flow cover: 28
  GUB cover: 1
  RLT: 8
  Relax-and-lift: 15

Explored 5411 nodes (602977 simplex iterations) in 852.92 seconds (56.00 work units)
Thread count was 32 (of 32 available processors)

Solution count 10: 72 73 73 ... 82

Optimal solution found (tolerance 1.00e-04)
Best objective 7.200000000000e+01, best bound 7.200000000000e+01, gap 0.0000%

Wrote result file 'RCPSP_487.sol'

